<number of tasks>
50

<cycle time>
1000

<order strength>
0.2


<task times>
1 589
2 549
3 255
4 400
5 643
6 472
7 504
8 356
9 639
10 407
11 524
12 487
13 631
14 497
15 373
16 434
17 712
18 496
19 427
20 438
21 385
22 449
23 557
24 695
25 565
26 435
27 459
28 570
29 494
30 378
31 536
32 582
33 384
34 685
35 521
36 497
37 507
38 566
39 490
40 384
41 404
42 443
43 483
44 509
45 480
46 234
47 459
48 508
49 540
50 314

<precedence relations>
1,7
2,8
3,10
4,9
6,11
7,12
8,12
10,14
11,13
12,15
13,16
13,19
13,20
13,21
14,17
14,18
14,22
15,23
16,25
17,24
17,26
17,28
18,27
18,29
19,29
20,45
22,50
23,30
24,31
25,32
26,33
27,35
28,34
28,38
29,36
29,37
29,39
30,43
31,43
32,41
33,44
34,42
35,43
36,40
38,45
38,46
39,47
40,48
41,49
42,49
45,50

<end>
